Tried aggregator 1 time.
MIP Presolve eliminated 15 rows and 0 columns.
Reduced MIP has 1247 rows, 360031 columns, and 1425900 nonzeros.
Reduced MIP has 360015 binaries, 0 generals, 0 SOSs, and 0 indicators.
Presolve time = 1.48 sec. (689.75 ticks)
Found incumbent of value 2.4082507e+008 after 3.30 sec. (1655.79 ticks)
Tried aggregator 1 time.
Reduced MIP has 1247 rows, 360031 columns, and 1425900 nonzeros.
Reduced MIP has 360015 binaries, 16 generals, 0 SOSs, and 0 indicators.
Presolve time = 1.03 sec. (482.18 ticks)
Dual steepest-edge pricing selected.
Probing time = 0.48 sec. (115.01 ticks)
Clique table members: 1200.
MIP emphasis: balance optimality and feasibility.
MIP search method: dynamic search.
Parallel mode: deterministic, using up to 6 threads.
Root relaxation solution time = 8.19 sec. (8500.16 ticks)

        Nodes                                         Cuts/
   Node  Left     Objective  IInf  Best Integer    Best Bound    ItCnt     Gap

*     0+    0                      2.40825e+008 -4.58842e+010              --- 
Found incumbent of value 2.4082507e+008 after 14.05 sec. (11248.50 ticks)
      0     0 -3.70221e+007    60  2.40825e+008 -3.70221e+007       36  115.37%
      0     0 -3.70221e+007   105  2.40825e+008    MIRcuts: 1       57  115.37%
      0     0 -3.70221e+007   141  2.40825e+008    MIRcuts: 1      106  115.37%
      0     2 -3.70221e+007   141  2.40825e+008 -3.70221e+007      106  115.37%
Elapsed time = 45.77 sec. (32984.07 ticks, tree = 0.01 MB, solutions = 1)
      1     3  4831031.0000    14  2.40825e+008 -3.70221e+007      682  115.37%
      2     4 -2109210.2654    41  2.40825e+008 -3.70221e+007    31212  115.37%
      3     5  1.63381e+007    13  2.40825e+008 -2086629.0000    34372  100.87%
      4     6  5548785.0000    14  2.40825e+008 -2086629.0000    34912  100.87%
*     5+    5                      1.14906e+008 -2086629.0000           101.82%
Found incumbent of value 1.1490574e+008 after 78.41 sec. (72726.11 ticks)
      5     7  1.13974e+008    64  1.14906e+008 -2086629.0000    45173  101.82%
      8    10  1.13974e+008    12  1.14906e+008 -2086629.0000    55688  101.82%
      9    11  5.25705e+007    40  1.14906e+008 -2086629.0000    64461  101.82%
     10    12  2.29513e+007    39  1.14906e+008  9715140.0000    66744   91.55%
     11    13  1.14464e+007    12  1.14906e+008  9715140.0000    67022   91.55%
     12    14  1.13974e+008    48  1.14906e+008  9715140.0000    67049   91.55%
Elapsed time = 102.80 sec. (84781.23 ticks, tree = 0.01 MB, solutions = 2)
*    13+   13                      7.82868e+007  9715140.0000            87.59%
Found incumbent of value 7.8286755e+007 after 103.97 sec. (89881.16 ticks)
     14    16  7.82292e+007    60  7.82868e+007  9715140.0000    67113   87.59%
     16    18  1.98140e+007    10  7.82868e+007  9715140.0000    67740   87.59%
     17    19  2.36151e+007    77  7.82868e+007  9715140.0000    73196   87.59%
     19    21  7.82292e+007    16  7.82868e+007  9715140.0000    73234   87.59%
     20    22  7.82292e+007    26  7.82868e+007  9715140.0000    73238   87.59%
     22    24  1.98140e+007    10  7.82868e+007  9715140.0000    73241   87.59%
     23    25  1.22390e+007    10  7.82868e+007  9715140.0000    73325   87.59%
     25    27  7.82292e+007    26  7.82868e+007  9715140.0000    73349   87.59%
     26    28  7.82292e+007    42  7.82868e+007  9715140.0000    73378   87.59%
     27    29  1.13974e+008    46  7.82868e+007  9715140.0000    73412   87.59%
Elapsed time = 114.05 sec. (91353.95 ticks, tree = 0.01 MB, solutions = 2)
     28    30  1.98140e+007    10  7.82868e+007  9715140.0000    73413   87.59%
     29    31  1.31926e+007    60  7.82868e+007  9715140.0000    74476   87.59%
     31    33  7.82292e+007    66  7.82868e+007  9715140.0000    74580   87.59%
     33    35  2.01985e+007    55  7.82868e+007  9715140.0000    75169   87.59%
     35    37  7.82292e+007    20  7.82868e+007  9715140.0000    75242   87.59%
     37    38  2.42836e+007    61  7.82868e+007  9715140.0000    76799   87.59%
     39    40  7.82292e+007    16  7.82868e+007  9715140.0000    76914   87.59%
     40    41  1.13974e+008    18  7.82868e+007  9715140.0000    76991   87.59%
     42    43  7.82292e+007    26  7.82868e+007  9715140.0000    77024   87.59%
     43    44  1.13974e+008    12  7.82868e+007  9715140.0000    77047   87.59%
Elapsed time = 117.34 sec. (92777.93 ticks, tree = 0.01 MB, solutions = 2)
     45    46  7.82292e+007    28  7.82868e+007  9715140.0000    77155   87.59%
     47    48  1.13974e+008    80  7.82868e+007  9715140.0000    77169   87.59%
     48    49  7.82292e+007    52  7.82868e+007  9715140.0000    77211   87.59%
     49    50  1.13974e+008    50  7.82868e+007  9715140.0000    77337   87.59%
     50    51  1.13974e+008    28  7.82868e+007  9715140.0000    77359   87.59%
     51    52  1.13974e+008    30  7.82868e+007  9715140.0000    77366   87.59%
     52    53  1.13974e+008    50  7.82868e+007  9715140.0000    77539   87.59%
     53    30  2.01998e+007    51  7.82868e+007  1.22390e+007    77540   84.37%
     54    31  1.22390e+007    10  7.82868e+007  1.22390e+007    77541   84.37%
     55    32  1.31937e+007    58  7.82868e+007  1.22390e+007    77552   84.37%
Elapsed time = 117.91 sec. (98835.46 ticks, tree = 0.01 MB, solutions = 5)
     60    37  1.34663e+007    30  7.82868e+007  1.22390e+007    78239   84.37%
     66    43  1.23379e+007    67  7.82868e+007  1.22390e+007    78628   84.37%
     68    45  7.82293e+007    72  7.82868e+007  1.22390e+007    78691   84.37%
     72    48  1.34723e+007   118  7.82868e+007  1.22390e+007    78813   84.37%
     74    50  7.82292e+007    46  7.82868e+007  1.22390e+007    78927   84.37%
     75    51  7.82292e+007    84  7.82868e+007  1.22390e+007    78953   84.37%
     78    54  1.34664e+007    46  7.82868e+007  1.22390e+007    78991   84.37%
     80    56  7.82292e+007    54  7.82868e+007  1.22390e+007    78999   84.37%
     81    57  7.82292e+007    10  7.82868e+007  1.22390e+007    79017   84.37%
     84    60  1.34681e+007    72  7.82868e+007  1.22390e+007    79045   84.37%
Elapsed time = 125.30 sec. (102761.86 ticks, tree = 0.01 MB, solutions = 5)
*   102    73      integral     0  1.34919e+007  1.22390e+007    79426    9.29%
Found incumbent of value 1.3491938e+007 after 126.78 sec. (103496.12 ticks)
    124    93  4.89359e+007   118  1.34919e+007  1.22390e+007    83573    9.29%
*   126    91      integral     0  1.34775e+007  1.22390e+007    83577    9.19%
Found incumbent of value 1.3477515e+007 after 131.19 sec. (104233.27 ticks)
    136    93  2.90976e+007    92  1.34775e+007  1.22390e+007    84655    9.19%
    142    97    infeasible        1.34775e+007  1.22390e+007    84951    9.19%
    148   103  2.91054e+007    44  1.34775e+007  1.22390e+007    85297    9.19%
    152   107  7.82293e+007    36  1.34775e+007  1.22390e+007    85405    9.19%
    153   108  7.82292e+007    26  1.34775e+007  1.22390e+007    85479    9.19%
    154   109  2.91055e+007    67  1.34775e+007  1.22390e+007    85517    9.19%
    158   113  7.82293e+007    56  1.34775e+007  1.22390e+007    85603    9.19%
    159   114  7.82292e+007    16  1.34775e+007  1.22390e+007    85623    9.19%
    160   115  2.91056e+007    34  1.34775e+007  1.22390e+007    85710    9.19%
Elapsed time = 141.22 sec. (109492.11 ticks, tree = 0.01 MB, solutions = 5)
    166   119  2.91059e+007    69  1.34775e+007  1.22390e+007    85947    9.19%
    172   123  2.91057e+007    45  1.34775e+007  1.22390e+007    86137    9.19%
*   174   118      integral     0  1.25347e+007  1.22390e+007    86346    2.36%
Found incumbent of value 1.2534701e+007 after 143.48 sec. (109492.11 ticks)
    178   120  2.91057e+007    14  1.25347e+007  1.22390e+007    86478    2.36%
    184   122  2.91058e+007    32  1.25347e+007  1.22390e+007    86724    2.36%
    190   128  2.91067e+007    74  1.25347e+007  1.22390e+007    87204    2.36%
    224   158  7.82294e+007    42  1.25347e+007  1.22390e+007    88279    2.36%
    229   159  7.82294e+007    36  1.25347e+007  1.22390e+007    88622    2.36%
    234   164  7.82294e+007    38  1.25347e+007  1.22390e+007    88965    2.36%
    239   167  7.82295e+007    34  1.25347e+007  1.22390e+007    89153    2.36%
    244   168  7.82295e+007    34  1.25347e+007  1.22390e+007    89332    2.36%
Elapsed time = 147.81 sec. (111821.18 ticks, tree = 0.01 MB, solutions = 5)
    251   146  2.02074e+007   100  1.25347e+007  1.22390e+007    89893    2.36%
    455    74  1.23420e+007    73  1.25347e+007  1.23390e+007    96885    1.56%
    456    74  1.23681e+007    75  1.25347e+007  1.23390e+007    96910    1.56%
    457    75  1.23431e+007    61  1.25347e+007  1.23390e+007    96957    1.56%
    458    76  1.23439e+007    67  1.25347e+007  1.23390e+007    97053    1.56%
    459    77  1.23434e+007    73  1.25347e+007  1.23390e+007    97137    1.56%
    460    78  1.23465e+007   125  1.25347e+007  1.23390e+007    97267    1.56%
    461    79  1.23434e+007    87  1.25347e+007  1.23390e+007    97285    1.56%
    462    79  1.24558e+007    74  1.25347e+007  1.23390e+007    97287    1.56%
    463    80  1.23434e+007    45  1.25347e+007  1.23390e+007    97292    1.56%
Elapsed time = 149.44 sec. (113208.17 ticks, tree = 0.01 MB, solutions = 12)
    466    83  1.23466e+007   103  1.25347e+007  1.23390e+007    97378    1.56%
*   467+   82                      1.25335e+007  1.23390e+007             1.55%
Found incumbent of value 1.2533496e+007 after 151.52 sec. (114159.94 ticks)
*   478+   90                      1.25182e+007  1.23390e+007             1.43%
Found incumbent of value 1.2518194e+007 after 157.53 sec. (118079.95 ticks)
    496   109  1.23494e+007   121  1.25182e+007  1.23390e+007    98359    1.43%
    502   115  1.23470e+007    61  1.25182e+007  1.23390e+007    98439    1.43%
    508   121  1.23470e+007    97  1.25182e+007  1.23390e+007    98553    1.43%
    514   126  1.23477e+007    78  1.25182e+007  1.23390e+007    98710    1.43%
    688   236  1.23454e+007    79  1.25182e+007  1.23390e+007   103629    1.43%
    693   239  1.23470e+007    85  1.25182e+007  1.23390e+007   103787    1.43%
    698   242  1.23493e+007     9  1.25182e+007  1.23390e+007   103829    1.43%
    703   245  1.24370e+007     8  1.25182e+007  1.23390e+007   103869    1.43%
    708   248  1.24808e+007     7  1.25182e+007  1.23390e+007   103970    1.43%
Elapsed time = 168.52 sec. (119379.01 ticks, tree = 0.01 MB, solutions = 12)
    778   297  1.24350e+007    48  1.25182e+007  1.23390e+007   105574    1.43%
    783   302  1.24355e+007    60  1.25182e+007  1.23390e+007   105652    1.43%
    788   307  1.24372e+007    60  1.25182e+007  1.23390e+007   105822    1.43%
    793   312  1.24373e+007     8  1.25182e+007  1.23390e+007   105847    1.43%
    798   317  1.24811e+007     7  1.25182e+007  1.23390e+007   105876    1.43%
    872   376        cutoff        1.25182e+007  1.23390e+007   106571    1.43%
    876   380  1.25173e+007    63  1.25182e+007  1.23390e+007   106696    1.43%
    880   384  1.25176e+007    19  1.25182e+007  1.23390e+007   106743    1.43%
    884   386        cutoff        1.25182e+007  1.23390e+007   106852    1.43%
*   889+  355                      1.25166e+007  1.23390e+007             1.42%
Found incumbent of value 1.2516558e+007 after 168.52 sec. (119580.29 ticks)
   1114   514  1.25104e+007     7  1.25166e+007  1.23407e+007   113127    1.40%
Elapsed time = 175.91 sec. (123425.88 ticks, tree = 21.33 MB, solutions = 21)
*  1458   728      integral     0  1.25052e+007  1.23407e+007   121403    1.32%
Found incumbent of value 1.2505249e+007 after 184.83 sec. (126742.40 ticks)
*  1555   580      integral     0  1.25046e+007  1.23468e+007   123703    1.26%
Found incumbent of value 1.2504638e+007 after 188.70 sec. (127842.45 ticks)
   1834   613  1.24997e+007    39  1.25046e+007  1.23468e+007   131784    1.26%
   1840   611        cutoff        1.25046e+007  1.23468e+007   131857    1.26%
   1846   610  1.24608e+007    52  1.25046e+007  1.23468e+007   131989    1.26%
   1852   613  1.25046e+007    51  1.25046e+007  1.23468e+007   132030    1.26%
   1858   613        cutoff        1.25046e+007  1.23468e+007   132090    1.26%
   1864   609        cutoff        1.25046e+007  1.23468e+007   132245    1.26%
   1870   608  1.24693e+007    44  1.25046e+007  1.23468e+007   132549    1.26%
   1874   609  1.24798e+007    75  1.25046e+007  1.23468e+007   132611    1.26%
   1876   608        cutoff        1.25046e+007  1.23468e+007   132643    1.26%
   1880   608  1.25017e+007    74  1.25046e+007  1.23468e+007   132737    1.26%
Elapsed time = 198.98 sec. (131732.37 ticks, tree = 36.99 MB, solutions = 22)
*  2019+  658                      1.25027e+007  1.24311e+007             0.57%
Found incumbent of value 1.2502661e+007 after 201.56 sec. (133031.64 ticks)
*  2177   679      integral     0  1.24897e+007  1.24311e+007   139678    0.47%
Found incumbent of value 1.2489695e+007 after 205.78 sec. (134445.41 ticks)
*  2478+  741                      1.24747e+007  1.24311e+007             0.35%
Found incumbent of value 1.2474657e+007 after 213.56 sec. (137093.66 ticks)
*  2650+  293                      1.24739e+007  1.24527e+007             0.17%
Found incumbent of value 1.2473910e+007 after 216.95 sec. (138893.02 ticks)
   2997   424  1.24682e+007    23  1.24739e+007  1.24527e+007   162608    0.17%
   3000   424  1.24698e+007    30  1.24739e+007  1.24527e+007   162819    0.17%
   3003   425  1.24689e+007     6  1.24739e+007  1.24527e+007   162874    0.17%
   3006   422    infeasible        1.24739e+007  1.24527e+007   162910    0.17%
   3009   421        cutoff        1.24739e+007  1.24527e+007   163003    0.17%
   3011   423  1.24677e+007    17  1.24739e+007  1.24527e+007   163083    0.17%
   3012   422        cutoff        1.24739e+007  1.24527e+007   163087    0.17%
   3015   421        cutoff        1.24739e+007  1.24527e+007   163152    0.17%
   3017   421        cutoff        1.24739e+007  1.24527e+007   163183    0.17%
Elapsed time = 228.66 sec. (142760.15 ticks, tree = 0.01 MB, solutions = 28)
   3349   425  1.24696e+007    61  1.24739e+007  1.24538e+007   172053    0.16%
   3354   424        cutoff        1.24739e+007  1.24538e+007   172237    0.16%
   3355   425  1.24698e+007    37  1.24739e+007  1.24538e+007   172240    0.16%
   3357   425  1.24668e+007    58  1.24739e+007  1.24538e+007   172356    0.16%
   3360   422        cutoff        1.24739e+007  1.24538e+007   172361    0.16%
   3361   423  1.24708e+007    41  1.24739e+007  1.24538e+007   172368    0.16%
   3362   424  1.24674e+007    31  1.24739e+007  1.24538e+007   172382    0.16%
   3363   423  1.24671e+007    28  1.24739e+007  1.24538e+007   172419    0.16%
   3366   422        cutoff        1.24739e+007  1.24538e+007   172555    0.16%
   3367   421        cutoff        1.24739e+007  1.24538e+007   172563    0.16%
Elapsed time = 239.50 sec. (146834.34 ticks, tree = 0.01 MB, solutions = 29)
   3597   364        cutoff        1.24739e+007  1.24538e+007   176317    0.16%
   3606   360        cutoff        1.24739e+007  1.24538e+007   176459    0.16%
   3628   356        cutoff        1.24739e+007  1.24538e+007   176829    0.16%
   3656   342        cutoff        1.24739e+007  1.24538e+007   176956    0.16%
   3662   339  1.24639e+007    25  1.24739e+007  1.24538e+007   176978    0.16%
   3664   337        cutoff        1.24739e+007  1.24538e+007   176984    0.16%
   3665   336        cutoff        1.24739e+007  1.24636e+007   177137    0.08%
   3666   335        cutoff        1.24739e+007  1.24636e+007   177257    0.08%
   3667   336  1.24641e+007    25  1.24739e+007  1.24636e+007   177258    0.08%
   3668   336  1.24698e+007    76  1.24739e+007  1.24636e+007   177405    0.08%
Elapsed time = 251.70 sec. (150992.08 ticks, tree = 0.01 MB, solutions = 29)
   4210   228        cutoff        1.24739e+007  1.24636e+007   201575    0.08%
   4216   226        cutoff        1.24739e+007  1.24636e+007   201940    0.08%
   4222   225        cutoff        1.24739e+007  1.24636e+007   202487    0.08%
   4227   226        cutoff        1.24739e+007  1.24636e+007   202949    0.08%
   4232   225        cutoff        1.24739e+007  1.24636e+007   203360    0.08%
   4237   222        cutoff        1.24739e+007  1.24636e+007   203752    0.08%
   4242   221        cutoff        1.24739e+007  1.24636e+007   204124    0.08%
   4247   218        cutoff        1.24739e+007  1.24636e+007   204590    0.08%
   4252   217        cutoff        1.24739e+007  1.24636e+007   205020    0.08%
   4257   218        cutoff        1.24739e+007  1.24636e+007   205345    0.08%
Elapsed time = 265.19 sec. (155372.36 ticks, tree = 0.01 MB, solutions = 29)
   4727   209        cutoff        1.24739e+007  1.24647e+007   237576    0.07%
   4728   208        cutoff        1.24739e+007  1.24647e+007   237586    0.07%
   4733   213  1.24697e+007    95  1.24739e+007  1.24647e+007   237708    0.07%
   4734   212        cutoff        1.24739e+007  1.24647e+007   237715    0.07%
   4737   211        cutoff        1.24739e+007  1.24647e+007   237975    0.07%
   4739   213  1.24697e+007   145  1.24739e+007  1.24647e+007   238015    0.07%
   4740   212        cutoff        1.24739e+007  1.24647e+007   238034    0.07%
   4743   213        cutoff        1.24739e+007  1.24647e+007   238106    0.07%
   4745   213        cutoff        1.24739e+007  1.24647e+007   238400    0.07%
   4746   212        cutoff        1.24739e+007  1.24647e+007   238414    0.07%
Elapsed time = 271.53 sec. (159318.48 ticks, tree = 4.36 MB, solutions = 29)
   4972   266  1.24699e+007    81  1.24739e+007  1.24683e+007   257497    0.04%
   4978   262  1.24699e+007    99  1.24739e+007  1.24683e+007   257970    0.04%
   4984   260  1.24699e+007    81  1.24739e+007  1.24683e+007   258051    0.04%
   4990   258  1.24699e+007   111  1.24739e+007  1.24683e+007   258180    0.04%
   4996   254  1.24699e+007   114  1.24739e+007  1.24683e+007   258581    0.04%
   5002   252  1.24699e+007    71  1.24739e+007  1.24683e+007   258719    0.04%
   5008   250  1.24699e+007   117  1.24739e+007  1.24683e+007   258790    0.04%
   5010   248        cutoff        1.24739e+007  1.24683e+007   258798    0.04%
   5014   246  1.24699e+007    58  1.24739e+007  1.24683e+007   259381    0.04%
   5016   244        cutoff        1.24739e+007  1.24683e+007   259389    0.04%
Elapsed time = 277.77 sec. (163217.76 ticks, tree = 5.96 MB, solutions = 29)
   5207   211        cutoff        1.24739e+007  1.24683e+007   268754    0.04%
   5210   212  1.24694e+007   137  1.24739e+007  1.24683e+007   268849    0.04%
   5213   209        cutoff        1.24739e+007  1.24683e+007   269395    0.04%
   5216   210  1.24694e+007    75  1.24739e+007  1.24683e+007   269446    0.04%
   5219   209  1.24694e+007   103  1.24739e+007  1.24683e+007   269475    0.04%
   5222   206        cutoff        1.24739e+007  1.24683e+007   270172    0.04%
   5225   205  1.24694e+007   119  1.24739e+007  1.24683e+007   270190    0.04%
   5228   202        cutoff        1.24739e+007  1.24683e+007   270743    0.04%
   5230   200        cutoff        1.24739e+007  1.24683e+007   270774    0.04%
   5231   201  1.24694e+007    79  1.24739e+007  1.24683e+007   270830    0.04%
Elapsed time = 288.59 sec. (167701.87 ticks, tree = 5.96 MB, solutions = 29)
   5449    99  1.24694e+007   107  1.24739e+007  1.24686e+007   320724    0.04%
   5450    98        cutoff        1.24739e+007  1.24686e+007   321392    0.04%
   5451    99  1.24694e+007   125  1.24739e+007  1.24686e+007   321427    0.04%
   5452    98        cutoff        1.24739e+007  1.24686e+007   321919    0.04%
   5453    99  1.24694e+007    85  1.24739e+007  1.24686e+007   321970    0.04%
   5454   100  1.24694e+007    20  1.24739e+007  1.24686e+007   321972    0.04%
   5455   101  1.24694e+007   101  1.24739e+007  1.24686e+007   322036    0.04%
   5456   100        cutoff        1.24739e+007  1.24686e+007   322923    0.04%
   5457   101  1.24694e+007   111  1.24739e+007  1.24686e+007   322939    0.04%
   5458   100        cutoff        1.24739e+007  1.24686e+007   323542    0.04%
Elapsed time = 294.81 sec. (172165.36 ticks, tree = 7.71 MB, solutions = 29)
   5534    96        cutoff        1.24739e+007  1.24693e+007   345805    0.04%
   5536    94        cutoff        1.24739e+007  1.24693e+007   346955    0.04%
   5537    93        cutoff        1.24739e+007  1.24693e+007   347861    0.04%
   5539    93        cutoff        1.24739e+007  1.24693e+007   348510    0.04%
   5540    92        cutoff        1.24739e+007  1.24693e+007   349400    0.04%
   5541    91        cutoff        1.24739e+007  1.24693e+007   350130    0.04%
   5542    90        cutoff        1.24739e+007  1.24693e+007   350773    0.04%
   5543    89        cutoff        1.24739e+007  1.24693e+007   351450    0.04%
   5545    89        cutoff        1.24739e+007  1.24693e+007   352169    0.04%
   5546    88        cutoff        1.24739e+007  1.24693e+007   352835    0.04%
Elapsed time = 295.97 sec. (176338.59 ticks, tree = 8.01 MB, solutions = 29)
   5616    84        cutoff        1.24739e+007  1.24693e+007   377286    0.04%
   5617    85  1.24694e+007    74  1.24739e+007  1.24693e+007   377311    0.04%
   5618    86  1.24694e+007   122  1.24739e+007  1.24693e+007   377337    0.04%
   5619    85        cutoff        1.24739e+007  1.24693e+007   378069    0.04%
   5620    86  1.24694e+007    90  1.24739e+007  1.24693e+007   378075    0.04%
   5621    87  1.24694e+007    90  1.24739e+007  1.24693e+007   378106    0.04%
   5622    86        cutoff        1.24739e+007  1.24693e+007   378964    0.04%
   5623    87  1.24694e+007    70  1.24739e+007  1.24693e+007   378967    0.04%
   5624    88  1.24694e+007    73  1.24739e+007  1.24693e+007   378970    0.04%
   5625    87        cutoff        1.24739e+007  1.24693e+007   379721    0.04%
Elapsed time = 301.36 sec. (180917.87 ticks, tree = 8.01 MB, solutions = 29)
   5709    73  1.24694e+007   124  1.24739e+007  1.24694e+007   418878    0.04%
   5710    72        cutoff        1.24739e+007  1.24694e+007   419684    0.04%
   5711    73  1.24694e+007   104  1.24739e+007  1.24694e+007   419689    0.04%
   5712    74  1.24694e+007    96  1.24739e+007  1.24694e+007   419712    0.04%
   5713    75  1.24694e+007    82  1.24739e+007  1.24694e+007   419727    0.04%
   5714    76  1.24694e+007    76  1.24739e+007  1.24694e+007   419738    0.04%
   5715    77  1.24694e+007    75  1.24739e+007  1.24694e+007   419747    0.04%
   5716    78  1.24694e+007    94  1.24739e+007  1.24694e+007   419751    0.04%
   5717    77        cutoff        1.24739e+007  1.24694e+007   420707    0.04%
   5718    78  1.24694e+007    91  1.24739e+007  1.24694e+007   420727    0.04%
Elapsed time = 308.02 sec. (185402.25 ticks, tree = 8.01 MB, solutions = 29)
   5769    97        cutoff        1.24739e+007  1.24694e+007   435559    0.04%
   5770    98  1.24694e+007    95  1.24739e+007  1.24694e+007   435566    0.04%
   5771    99  1.24694e+007   121  1.24739e+007  1.24694e+007   435584    0.04%
   5772    98        cutoff        1.24739e+007  1.24694e+007   436394    0.04%
   5773    99  1.24694e+007   129  1.24739e+007  1.24694e+007   436405    0.04%
   5774    98        cutoff        1.24739e+007  1.24694e+007   437173    0.04%
   5775    99  1.24694e+007    89  1.24739e+007  1.24694e+007   437181    0.04%
   5776   100  1.24694e+007    91  1.24739e+007  1.24694e+007   437193    0.04%
   5777    99        cutoff        1.24739e+007  1.24694e+007   438182    0.04%
   5778   100  1.24728e+007    22  1.24739e+007  1.24694e+007   438183    0.04%
Elapsed time = 308.27 sec. (189894.29 ticks, tree = 8.16 MB, solutions = 29)
   5859    80  1.24694e+007   130  1.24739e+007  1.24694e+007   480961    0.04%
   5860    79        cutoff        1.24739e+007  1.24694e+007   481787    0.04%
   5861    80  1.24694e+007   132  1.24739e+007  1.24694e+007   481790    0.04%
   5862    79        cutoff        1.24739e+007  1.24694e+007   482526    0.04%
   5863    80  1.24694e+007   111  1.24739e+007  1.24694e+007   482550    0.04%
   5864    81  1.24694e+007    32  1.24739e+007  1.24694e+007   482555    0.04%
   5865    82  1.24694e+007    99  1.24739e+007  1.24694e+007   482560    0.04%
   5866    81        cutoff        1.24739e+007  1.24694e+007   483410    0.04%
   5867    82  1.24694e+007   101  1.24739e+007  1.24694e+007   483414    0.04%
   5868    81        cutoff        1.24739e+007  1.24694e+007   484307    0.04%
Elapsed time = 314.73 sec. (194540.43 ticks, tree = 8.16 MB, solutions = 29)

Mixed integer rounding cuts applied:  2

Root node processing (before b&c):
  Real time             =   45.16 sec. (32484.58 ticks)
Parallel b&c, 6 threads:
  Real time             =  270.47 sec. (165047.10 ticks)
  Sync time (average)   =   58.17 sec.
  Wait time (average)   =   58.91 sec.
                          ------------
Total (root+branch&cut) =  315.63 sec. (197531.68 ticks)
